% seed = 1277007

mint = 53;
% maxt = 208;

nActs = 42;
dur = [0,5,8,5,9,1,10,8,4,10,7,6,7,7,1,1,3,4,8,5,2,5,6,4,7,7,1,3,2,9,3,3,10,5,5,3,3,2,2,10,7,0];

nSkills = 4;
sreq = [| 0,0,0,0,
	| 5,0,4,0,
	| 0,2,2,0,
	| 3,6,0,0,
	| 0,4,4,0,
	| 3,4,0,0,
	| 0,5,7,0,
	| 7,0,4,0,
	| 0,0,7,3,
	| 0,2,7,0,
	| 3,0,0,4,
	| 4,2,0,0,
	| 0,0,6,5,
	| 0,4,0,5,
	| 4,0,5,0,
	| 0,6,0,2,
	| 0,7,4,0,
	| 1,0,0,4,
	| 5,0,5,0,
	| 3,0,0,4,
	| 4,0,2,0,
	| 0,4,4,0,
	| 2,0,0,2,
	| 0,0,4,1,
	| 4,0,6,0,
	| 0,0,5,4,
	| 5,0,4,0,
	| 6,0,0,3,
	| 0,7,2,0,
	| 3,0,0,1,
	| 0,4,2,0,
	| 0,1,0,2,
	| 4,1,0,0,
	| 0,0,4,5,
	| 0,5,0,3,
	| 0,0,1,4,
	| 6,0,5,0,
	| 0,4,0,7,
	| 3,5,0,0,
	| 0,0,6,4,
	| 0,5,0,4,
	| 0,0,0,0, |];

nResources = 25;
mastery = [| true,false,true,true,
	| false,true,true,true,
	| true,true,false,false,
	| true,true,false,true,
	| true,true,false,true,
	| true,false,true,true,
	| true,false,true,false,
	| true,false,false,false,
	| true,false,true,false,
	| true,true,true,false,
	| true,true,false,true,
	| true,false,true,true,
	| true,true,false,false,
	| true,true,false,true,
	| true,true,true,false,
	| false,false,true,false,
	| false,false,true,false,
	| false,true,false,false,
	| true,true,true,false,
	| true,false,false,true,
	| true,false,false,false,
	| false,false,true,false,
	| true,false,false,false,
	| true,false,true,true,
	| true,false,true,true, |];

nPrecs = 85;
pred = [1,1,1,2,2,2,3,3,3,4,4,4,5,5,5,6,6,6,7,7,7,8,8,8,9,9,9,10,10,10,11,11,12,12,12,13,13,13,14,14,14,15,15,15,16,16,17,18,18,19,19,19,20,21,22,22,23,23,23,24,25,25,25,26,26,27,28,28,29,29,29,30,31,31,32,33,34,35,36,37,38,38,39,40,41];
succ = [2,3,4,33,10,22,9,25,22,5,6,7,21,30,8,12,13,8,18,29,14,20,14,16,19,21,15,17,11,24,18,12,25,34,30,41,17,21,17,26,24,26,20,31,27,38,39,28,20,24,23,32,32,37,28,37,27,28,38,36,26,36,31,27,39,40,34,30,34,31,40,35,35,32,37,36,35,41,38,39,41,40,42,42,42];

nUnrels = 431;
unpred = [2,2,2,2,2,2,2,2,2,2,2,2,2,2,2,3,3,3,3,3,3,3,3,3,3,3,3,3,3,3,4,4,4,4,4,4,4,4,5,5,5,5,5,5,5,5,5,5,5,5,5,5,5,5,5,5,6,6,6,6,6,6,6,6,6,6,6,6,7,7,7,7,7,7,7,7,7,7,7,7,7,7,8,8,8,8,8,8,8,8,8,8,8,8,8,8,8,8,8,8,8,9,9,9,9,9,9,9,9,9,9,9,9,10,10,10,10,10,10,10,10,10,10,11,11,11,11,11,11,11,11,11,11,11,11,12,12,12,12,12,12,12,12,12,12,12,12,12,12,12,13,13,13,13,13,13,13,13,13,13,13,13,13,13,13,13,13,13,13,13,13,13,13,14,14,14,14,14,14,14,14,14,14,14,14,14,14,14,14,14,14,15,15,15,15,15,15,15,15,15,15,15,15,15,15,15,15,16,16,16,16,16,16,16,16,16,16,16,16,16,16,16,16,16,16,16,16,16,17,17,17,17,17,17,17,17,17,17,17,17,17,17,17,17,17,17,17,17,17,17,17,18,18,18,18,18,18,18,18,18,18,18,18,18,18,19,19,19,19,19,19,19,19,20,20,20,20,20,20,20,20,20,20,20,20,20,20,20,20,20,20,21,21,21,21,21,21,21,21,21,21,21,21,21,21,21,21,21,21,22,22,22,22,22,22,22,22,22,22,22,22,23,23,23,23,23,23,23,23,23,23,24,24,24,24,24,24,24,24,24,24,24,24,24,25,25,25,25,25,26,26,26,26,26,26,26,26,26,26,26,26,27,27,27,27,27,27,27,27,27,27,27,27,27,28,28,28,28,28,28,28,28,28,29,29,29,29,30,30,30,30,30,30,30,30,30,31,31,31,31,31,32,32,32,32,32,32,32,33,33,33,33,34,34,34,34,34,35,35,35,35,35,36,36,37,37,37,38,39,39,40];
unsucc = [3,4,5,6,7,8,9,13,14,15,16,19,21,23,29,4,5,6,7,8,10,11,12,13,14,16,17,18,29,33,9,10,11,15,19,22,23,33,6,7,9,10,11,12,13,15,18,19,22,23,25,28,29,31,33,34,7,9,10,11,15,18,19,22,23,28,29,33,8,9,10,11,12,13,15,16,19,21,22,23,25,33,9,10,11,12,13,15,18,19,21,22,23,25,28,29,30,31,33,34,35,10,11,12,13,14,16,17,18,22,25,29,33,13,14,15,16,19,21,22,23,29,33,13,14,15,16,17,19,21,22,23,24,29,33,13,14,15,16,17,18,19,20,21,22,23,24,28,29,33,14,15,16,18,19,20,22,23,24,25,26,27,28,29,30,31,32,33,34,35,36,38,40,15,16,18,19,20,21,22,23,25,28,29,30,31,32,33,34,35,37,16,17,18,19,21,22,23,24,25,28,29,30,33,34,36,38,17,18,19,20,21,22,23,24,25,26,28,29,30,31,32,33,34,35,36,37,39,18,19,20,21,22,23,24,25,26,27,28,29,30,31,32,33,34,35,36,37,38,40,41,19,21,22,23,24,25,26,27,29,31,33,36,38,40,20,21,22,25,26,29,31,33,21,22,23,24,25,26,27,28,29,30,31,33,34,35,36,38,40,41,22,23,24,25,26,27,28,29,30,31,32,33,34,35,36,38,40,41,23,24,25,26,27,29,31,32,33,36,38,40,24,25,26,29,31,32,33,36,37,39,25,26,27,28,29,30,31,32,33,34,35,37,39,28,29,30,33,34,28,29,30,31,32,33,34,35,36,37,38,41,28,29,30,31,32,33,34,35,36,37,38,39,41,29,31,32,33,36,37,38,39,40,30,33,36,38,31,32,33,34,36,37,38,39,40,33,34,36,38,40,33,34,35,36,38,40,41,34,35,37,39,36,37,38,39,40,36,37,38,39,40,37,39,38,40,41,39,40,41,41];

USEFUL_RES = [{},
	{1,2,3,4,5,6,7,8,9,10,11,12,13,14,15,16,17,19,20,21,22,23,24,25},
	{1,2,3,4,5,6,7,9,10,11,12,13,14,15,16,17,18,19,22,24,25},
	{1,2,3,4,5,6,7,8,9,10,11,12,13,14,15,18,19,20,21,23,24,25},
	{1,2,3,4,5,6,7,9,10,11,12,13,14,15,16,17,18,19,22,24,25},
	{1,2,3,4,5,6,7,8,9,10,11,12,13,14,15,18,19,20,21,23,24,25},
	{1,2,3,4,5,6,7,9,10,11,12,13,14,15,16,17,18,19,22,24,25},
	{1,2,3,4,5,6,7,8,9,10,11,12,13,14,15,16,17,19,20,21,22,23,24,25},
	{1,2,4,5,6,7,9,10,11,12,14,15,16,17,19,20,22,24,25},
	{1,2,3,4,5,6,7,9,10,11,12,13,14,15,16,17,18,19,22,24,25},
	{1,2,3,4,5,6,7,8,9,10,11,12,13,14,15,19,20,21,23,24,25},
	{1,2,3,4,5,6,7,8,9,10,11,12,13,14,15,18,19,20,21,23,24,25},
	{1,2,4,5,6,7,9,10,11,12,14,15,16,17,19,20,22,24,25},
	{1,2,3,4,5,6,10,11,12,13,14,15,18,19,20,24,25},
	{1,2,3,4,5,6,7,8,9,10,11,12,13,14,15,16,17,19,20,21,22,23,24,25},
	{1,2,3,4,5,6,10,11,12,13,14,15,18,19,20,24,25},
	{1,2,3,4,5,6,7,9,10,11,12,13,14,15,16,17,18,19,22,24,25},
	{1,2,3,4,5,6,7,8,9,10,11,12,13,14,15,19,20,21,23,24,25},
	{1,2,3,4,5,6,7,8,9,10,11,12,13,14,15,16,17,19,20,21,22,23,24,25},
	{1,2,3,4,5,6,7,8,9,10,11,12,13,14,15,19,20,21,23,24,25},
	{1,2,3,4,5,6,7,8,9,10,11,12,13,14,15,16,17,19,20,21,22,23,24,25},
	{1,2,3,4,5,6,7,9,10,11,12,13,14,15,16,17,18,19,22,24,25},
	{1,2,3,4,5,6,7,8,9,10,11,12,13,14,15,19,20,21,23,24,25},
	{1,2,4,5,6,7,9,10,11,12,14,15,16,17,19,20,22,24,25},
	{1,2,3,4,5,6,7,8,9,10,11,12,13,14,15,16,17,19,20,21,22,23,24,25},
	{1,2,4,5,6,7,9,10,11,12,14,15,16,17,19,20,22,24,25},
	{1,2,3,4,5,6,7,8,9,10,11,12,13,14,15,16,17,19,20,21,22,23,24,25},
	{1,2,3,4,5,6,7,8,9,10,11,12,13,14,15,19,20,21,23,24,25},
	{1,2,3,4,5,6,7,9,10,11,12,13,14,15,16,17,18,19,22,24,25},
	{1,2,3,4,5,6,7,8,9,10,11,12,13,14,15,19,20,21,23,24,25},
	{1,2,3,4,5,6,7,9,10,11,12,13,14,15,16,17,18,19,22,24,25},
	{1,2,3,4,5,6,10,11,12,13,14,15,18,19,20,24,25},
	{1,2,3,4,5,6,7,8,9,10,11,12,13,14,15,18,19,20,21,23,24,25},
	{1,2,4,5,6,7,9,10,11,12,14,15,16,17,19,20,22,24,25},
	{1,2,3,4,5,6,10,11,12,13,14,15,18,19,20,24,25},
	{1,2,4,5,6,7,9,10,11,12,14,15,16,17,19,20,22,24,25},
	{1,2,3,4,5,6,7,8,9,10,11,12,13,14,15,16,17,19,20,21,22,23,24,25},
	{1,2,3,4,5,6,10,11,12,13,14,15,18,19,20,24,25},
	{1,2,3,4,5,6,7,8,9,10,11,12,13,14,15,18,19,20,21,23,24,25},
	{1,2,4,5,6,7,9,10,11,12,14,15,16,17,19,20,22,24,25},
	{1,2,3,4,5,6,10,11,12,13,14,15,18,19,20,24,25},
	{}];

POTENTIAL_ACT = [{2,3,4,5,6,7,8,9,10,11,12,13,14,15,16,17,18,19,20,21,22,23,24,25,26,27,28,29,30,31,32,33,34,35,36,37,38,39,40,41},
	{2,3,4,5,6,7,8,9,10,11,12,13,14,15,16,17,18,19,20,21,22,23,24,25,26,27,28,29,30,31,32,33,34,35,36,37,38,39,40,41},
	{2,3,4,5,6,7,8,10,11,12,14,15,16,17,18,19,20,21,22,23,25,27,28,29,30,31,32,33,35,37,38,39,41},
	{2,3,4,5,6,7,8,9,10,11,12,13,14,15,16,17,18,19,20,21,22,23,24,25,26,27,28,29,30,31,32,33,34,35,36,37,38,39,40,41},
	{2,3,4,5,6,7,8,9,10,11,12,13,14,15,16,17,18,19,20,21,22,23,24,25,26,27,28,29,30,31,32,33,34,35,36,37,38,39,40,41},
	{2,3,4,5,6,7,8,9,10,11,12,13,14,15,16,17,18,19,20,21,22,23,24,25,26,27,28,29,30,31,32,33,34,35,36,37,38,39,40,41},
	{2,3,4,5,6,7,8,9,10,11,12,13,15,17,18,19,20,21,22,23,24,25,26,27,28,29,30,31,33,34,36,37,39,40},
	{2,4,6,8,11,12,15,18,19,20,21,23,25,27,28,30,33,37,39},
	{2,3,4,5,6,7,8,9,10,11,12,13,15,17,18,19,20,21,22,23,24,25,26,27,28,29,30,31,33,34,36,37,39,40},
	{2,3,4,5,6,7,8,9,10,11,12,13,14,15,16,17,18,19,20,21,22,23,24,25,26,27,28,29,30,31,32,33,34,35,36,37,38,39,40,41},
	{2,3,4,5,6,7,8,9,10,11,12,13,14,15,16,17,18,19,20,21,22,23,24,25,26,27,28,29,30,31,32,33,34,35,36,37,38,39,40,41},
	{2,3,4,5,6,7,8,9,10,11,12,13,14,15,16,17,18,19,20,21,22,23,24,25,26,27,28,29,30,31,32,33,34,35,36,37,38,39,40,41},
	{2,3,4,5,6,7,8,10,11,12,14,15,16,17,18,19,20,21,22,23,25,27,28,29,30,31,32,33,35,37,38,39,41},
	{2,3,4,5,6,7,8,9,10,11,12,13,14,15,16,17,18,19,20,21,22,23,24,25,26,27,28,29,30,31,32,33,34,35,36,37,38,39,40,41},
	{2,3,4,5,6,7,8,9,10,11,12,13,14,15,16,17,18,19,20,21,22,23,24,25,26,27,28,29,30,31,32,33,34,35,36,37,38,39,40,41},
	{2,3,5,7,8,9,10,13,15,17,19,21,22,24,25,26,27,29,31,34,36,37,40},
	{2,3,5,7,8,9,10,13,15,17,19,21,22,24,25,26,27,29,31,34,36,37,40},
	{3,4,5,6,7,10,12,14,16,17,22,29,31,32,33,35,38,39,41},
	{2,3,4,5,6,7,8,9,10,11,12,13,14,15,16,17,18,19,20,21,22,23,24,25,26,27,28,29,30,31,32,33,34,35,36,37,38,39,40,41},
	{2,4,6,8,9,11,12,13,14,15,16,18,19,20,21,23,24,25,26,27,28,30,32,33,34,35,36,37,38,39,40,41},
	{2,4,6,8,11,12,15,18,19,20,21,23,25,27,28,30,33,37,39},
	{2,3,5,7,8,9,10,13,15,17,19,21,22,24,25,26,27,29,31,34,36,37,40},
	{2,4,6,8,11,12,15,18,19,20,21,23,25,27,28,30,33,37,39},
	{2,3,4,5,6,7,8,9,10,11,12,13,14,15,16,17,18,19,20,21,22,23,24,25,26,27,28,29,30,31,32,33,34,35,36,37,38,39,40,41},
	{2,3,4,5,6,7,8,9,10,11,12,13,14,15,16,17,18,19,20,21,22,23,24,25,26,27,28,29,30,31,32,33,34,35,36,37,38,39,40,41}];
